problems/csplib-prob015/SchursLemma-models/noch/O2/lingeling/model_1_3-6-13-solution000001.eprime-solution
language ESSENCE' 1.0

letting boxes_PartitionAsSet_ExplicitR5_ExplicitVarSizeWithMarker_Marker be [1, 1, 1, 3, 3, 4; int(1..6)]
letting boxes_PartitionAsSet_ExplicitR5_ExplicitVarSizeWithMarker_Values be
        [[2, 1, 1, 1, 1, 1, 1, 1, 1, 1, 1, 1, 1; int(1..13)], [3, 1, 1, 1, 1, 1, 1, 1, 1, 1, 1, 1, 1; int(1..13)],
         [12, 1, 1, 1, 1, 1, 1, 1, 1, 1, 1, 1, 1; int(1..13)], [1, 5, 8, 1, 1, 1, 1, 1, 1, 1, 1, 1, 1; int(1..13)],
         [6, 9, 11, 1, 1, 1, 1, 1, 1, 1, 1, 1, 1; int(1..13)],
         [4, 7, 10, 13, 1, 1, 1, 1, 1, 1, 1, 1, 1; int(1..13)]; int(1..6)]
